JulietBench/Juliet_Based_Patch_Bench/linux/CWE-189-Numeric-Errors/CVE_2011_2497_7ac28817536797fd40e9646452183606f9e17f71/Resultl2cap_config_req_Snippet_patch1EQ.smt2
; benchmark generated from python API
(set-info :status unknown)
(declare-fun R () (_ BitVec 32))
(declare-fun rdi () (_ BitVec 64))
(declare-fun rsi () (_ BitVec 64))
(assert
 (let (($x84 (= (_ bv0 32) R)))
 (let ((?x10 ((_ extract 15 0) rdi)))
 (let ((?x17 (concat (_ bv0 16) ?x10)))
 (let ((?x24 (bvadd (_ bv4294967292 32) ?x17)))
 (let ((?x13 ((_ zero_extend 32) ?x24)))
 (let ((?x70 (bvlshr ?x13 (_ bv31 64))))
 (let ((?x71 ((_ extract 0 0) ?x70)))
 (let ((?x72 (bvand ?x71 (_ bv1 1))))
 (let (($x73 (and (distinct (_ bv0 1) ?x72) true)))
 (let (($x116 (and $x73 $x84)))
 (let (($x437 (= R ?x24)))
 (let (($x83 (= (_ bv0 1) ?x72)))
 (let ((?x15 ((_ extract 7 0) rsi)))
 (let ((?x26 (concat (_ bv0 24) ?x15)))
 (let ((?x27 (bvadd ?x24 ?x26)))
 (let (($x32 (bvsge (_ bv128 32) ?x27)))
 (let (($x181 (and $x32 $x83 $x437)))
 (let (($x55 (bvslt (_ bv128 32) ?x27)))
 (let (($x169 (and $x55 $x83 $x84)))
 (let (($x157 (or $x169 $x181 $x116)))
 (let (($x111 (and $x32 $x437)))
 (let (($x85 (and $x55 $x84)))
 (let (($x143 (or $x85 $x111)))
 (and $x143 $x157)))))))))))))))))))))))))
(check-sat)
